<number of tasks>
20

<cycle time>
1000

<order strength>
0,279


<task times>
1 464
2 154
3 506
4 476
5 77
6 155
7 340
8 467
9 94
10 65
11 192
12 127
13 204
14 108
15 481
16 213
17 116
18 74
19 220
20 117

<precedence relations>
1,9
2,9
3,9
4,9
5,11
5,12
8,10
9,13
9,14
9,15
9,16
14,17
15,18
17,20
18,19

<end>
